// Sun May 06 16:38:33 CST 2018
// minnfv run10

CPXPARAM_MIP_Strategy_NodeSelect                 2
CPXPARAM_MIP_Strategy_CallbackReducedLP          0
Tried aggregator 2 times.
MIP Presolve eliminated 319 rows and 19 columns.
MIP Presolve modified 13711 coefficients.
Aggregator did 108 substitutions.
Reduced MIP has 3830 rows, 2582 columns, and 17074 nonzeros.
Reduced MIP has 1829 binaries, 753 generals, 0 SOSs, and 0 indicators.
Presolve time = 0.08 sec. (24.89 ticks)
Probing fixed 105 vars, tightened 0 bounds.
Probing time = 0.00 sec. (1.42 ticks)
Cover probing fixed 0 vars, tightened 18 bounds.
Tried aggregator 1 time.
MIP Presolve eliminated 111 rows and 105 columns.
MIP Presolve modified 2567 coefficients.
Reduced MIP has 3719 rows, 2477 columns, and 15932 nonzeros.
Reduced MIP has 1724 binaries, 753 generals, 0 SOSs, and 0 indicators.
Presolve time = 0.03 sec. (16.13 ticks)
Probing time = 0.02 sec. (1.18 ticks)
Clique table members: 1173.
MIP emphasis: balance optimality and feasibility.
MIP search method: dynamic search.
Parallel mode: deterministic, using up to 32 threads.
Root relaxation solution time = 0.22 sec. (50.59 ticks)

        Nodes                                         Cuts/
   Node  Left     Objective  IInf  Best Integer    Best Bound    ItCnt     Gap

      0     0      918.0440   111                    918.0440     1128         
      0     0      918.0440   100                    Cuts: 90     1574         
      0     0      918.0443   135                    Cuts: 53     1802         
      0     0      918.0447   185                    Cuts: 26     1951         
      0     2      918.0447   115                    918.0447     1951         
Elapsed time = 3.67 sec. (565.47 ticks, tree = 0.01 MB, solutions = 0)
*     8+    7                         1019.0440      918.0450             9.91%
*    16+    7                         1018.0460      918.0451             9.82%
*    21+    7                         1018.0450      918.0451             9.82%
    344    20      918.0566   165     1018.0450      918.0532    32729    9.82%
   4116   684      918.0726   193     1018.0450      918.0570    85466    9.82%
   7310    49      987.7609   181     1018.0450      918.0596   191337    9.82%

Clique cuts applied:  39
Cover cuts applied:  83
Implied bound cuts applied:  378
Mixed integer rounding cuts applied:  10
Zero-half cuts applied:  9
Lift and project cuts applied:  6
Gomory fractional cuts applied:  13

Root node processing (before b&c):
  Real time             =    1.48 sec. (563.89 ticks)
Parallel b&c, 32 threads:
  Real time             =   52.84 sec. (812.53 ticks)
  Sync time (average)   =   47.98 sec.
  Wait time (average)   =    0.02 sec.
                          ------------
Total (root+branch&cut) =   54.33 sec. (1376.42 ticks)
